
Gurobi 11.0.0 (linux64) logging started Fri Apr 12 13:56:46 2024

Set parameter LogFile to value "/lustre1/scratch/348/vsc34888/JointResearch/05.Models/06.Benchmarking/K.Investments_per_hour/RTS24_ByStages_nc50/openStarNet_RTS24_ByStages_nc50.log"
Set parameter Method to value 2
Set parameter MIPFocus to value 1
Set parameter Presolve to value 2
Set parameter RINS to value 100
Set parameter MIPGap to value 0.01
Set parameter Threads to value 36
Set parameter TimeLimit to value 259200
Set parameter IterationLimit to value 760000000
Gurobi Optimizer version 11.0.0 build v11.0.0rc2 (linux64 - "Rocky Linux 8.8 (Green Obsidian)")

CPU model: Intel(R) Xeon(R) Gold 6240 CPU @ 2.60GHz, instruction set [SSE2|AVX|AVX2|AVX512]
Thread count: 36 physical cores, 36 logical processors, using up to 36 threads

Optimize a model with 19453 rows, 11620 columns and 51819 nonzeros
Model fingerprint: 0x91d12094
Variable types: 11590 continuous, 30 integer (30 binary)
Coefficient statistics:
  Matrix range     [3e-02, 6e+02]
  Objective range  [1e+00, 1e+00]
  Bounds range     [4e-04, 3e+00]
  RHS range        [4e-04, 3e+00]
Presolve removed 10443 rows and 5463 columns
Presolve time: 0.10s
Presolved: 9010 rows, 6157 columns, 31737 nonzeros
Variable types: 6127 continuous, 30 integer (30 binary)
Found heuristic solution: objective 313.5645038
Root relaxation presolved: 9010 rows, 6157 columns, 31737 nonzeros

Root barrier log...

Ordering time: 0.00s

Barrier statistics:
 Dense cols : 30
 AA' NZ     : 6.667e+04
 Factor NZ  : 1.739e+05 (roughly 8 MB of memory)
 Factor Ops : 3.702e+06 (less than 1 second per iteration)
 Threads    : 36

                  Objective                Residual
Iter       Primal          Dual         Primal    Dual     Compl     Time
   0   7.96426666e+05 -4.36025878e+07  6.97e+00 2.21e+02  6.75e+03     0s
   1   1.28858958e+05 -1.26729199e+07  9.48e-01 1.04e-09  9.97e+02     0s
   2   4.15141492e+04 -1.99298742e+06  1.64e-01 6.48e-09  1.26e+02     0s
   3   1.57193397e+04 -2.54382292e+05  1.01e-13 6.21e-10  1.42e+01     0s
   4   3.15898584e+03 -1.89445394e+04  1.90e-13 2.85e-11  1.17e+00     0s
   5   6.79655160e+02 -4.96719465e+03  1.47e-13 7.52e-12  2.98e-01     0s
   6   4.42288412e+02 -9.72790431e+02  1.60e-13 1.43e-12  7.46e-02     0s
   7   3.36301499e+02 -2.80729057e+02  1.19e-13 1.82e-12  3.25e-02     0s
   8   2.63676071e+02  1.26865077e+01  1.86e-13 9.09e-13  1.32e-02     0s
   9   2.25007720e+02  7.73005513e+01  2.03e-13 9.09e-13  7.79e-03     0s
  10   2.14130755e+02  1.30634563e+02  2.95e-13 9.09e-13  4.40e-03     0s
  11   1.86022274e+02  1.58610238e+02  9.50e-13 9.09e-13  1.45e-03     0s
  12   1.77010039e+02  1.62694707e+02  1.58e-12 9.09e-13  7.55e-04     0s
  13   1.74858395e+02  1.65335756e+02  1.64e-12 9.09e-13  5.02e-04     0s
  14   1.73339714e+02  1.68267460e+02  3.05e-12 9.09e-13  2.67e-04     0s
  15   1.72511442e+02  1.69247655e+02  3.93e-12 9.09e-13  1.72e-04     0s
  16   1.72016946e+02  1.69936932e+02  5.13e-12 9.09e-13  1.10e-04     0s
  17   1.71808776e+02  1.70216369e+02  5.59e-12 9.09e-13  8.40e-05     0s
  18   1.71618937e+02  1.70754096e+02  4.20e-12 9.09e-13  4.56e-05     0s
  19   1.71383759e+02  1.70950078e+02  7.18e-12 1.82e-12  2.29e-05     0s
  20   1.71343642e+02  1.71104974e+02  8.84e-12 9.09e-13  1.26e-05     0s
  21   1.71245401e+02  1.71185275e+02  4.07e-11 9.09e-13  3.17e-06     0s
  22   1.71212512e+02  1.71201382e+02  2.92e-10 1.82e-12  5.87e-07     0s
  23   1.71206767e+02  1.71204715e+02  1.02e-09 1.82e-12  1.08e-07     0s
  24   1.71205413e+02  1.71205124e+02  2.76e-10 9.09e-13  1.52e-08     0s
  25   1.71205173e+02  1.71205154e+02  6.21e-10 9.09e-13  9.93e-10     0s
  26   1.71205171e+02  1.71205171e+02  1.33e-10 1.82e-12  2.26e-12     0s

Barrier solved model in 26 iterations and 0.40 seconds (0.30 work units)
Optimal objective 1.71205171e+02


Root relaxation: objective 1.712052e+02, 969 iterations, 0.28 seconds (0.14 work units)

    Nodes    |    Current Node    |     Objective Bounds      |     Work
 Expl Unexpl |  Obj  Depth IntInf | Incumbent    BestBd   Gap | It/Node Time

     0     0  171.20517    0   20  313.56450  171.20517  45.4%     -    0s
     0     0  174.03853    0   15  313.56450  174.03853  44.5%     -    0s
     0     0  174.17224    0   15  313.56450  174.17224  44.5%     -    0s
H    0     0                     286.7948833  174.45565  39.2%     -    0s
     0     0  174.45565    0   17  286.79488  174.45565  39.2%     -    1s
     0     0  174.45612    0   18  286.79488  174.45612  39.2%     -    1s
     0     0  174.45612    0   18  286.79488  174.45612  39.2%     -    1s
     0     0  174.85886    0   15  286.79488  174.85886  39.0%     -    1s
     0     0  174.89189    0   15  286.79488  174.89189  39.0%     -    1s
H    0     0                     261.2495632  174.95948  33.0%     -    1s
     0     0  174.95948    0   15  261.24956  174.95948  33.0%     -    1s
     0     0  174.95968    0   16  261.24956  174.95968  33.0%     -    1s
     0     0  175.12471    0   15  261.24956  175.12471  33.0%     -    1s
     0     0  175.16696    0   14  261.24956  175.16696  33.0%     -    1s
     0     0  175.16696    0   14  261.24956  175.16696  33.0%     -    1s
H    0     0                     252.3459536  175.16696  30.6%     -    2s
H    0     0                     251.3032055  175.16696  30.3%     -    2s
     0     0  175.26361    0   12  251.30321  175.26361  30.3%     -    2s
H    0     0                     199.6286553  175.26361  12.2%     -    6s
     0     2  175.26361    0   12  199.62866  175.26361  12.2%     -    7s
H   93   124                     198.8792986  178.69207  10.2%   354   14s
H   94   124                     198.4235007  178.69207  9.94%   356   14s
H   95   124                     198.3553772  178.69207  9.91%   356   14s
H   96   124                     197.8869548  178.69207  9.70%   354   14s
   201   215  182.87053   10   13  197.88695  178.69207  9.70%   274   15s
   798   369     cutoff   11       197.88695  179.43260  9.33%   215   23s
  1173   407  188.82519   11   12  197.88695  180.30129  8.89%   208   30s
  2893   586  187.38540   10   11  197.88695  186.42734  5.79%   168   43s
  3099   602     cutoff   13       197.88695  186.42734  5.79%   166   54s
  3552   649     cutoff   15       197.88695  186.42734  5.79%   161   55s
  3898   666     cutoff   15       197.88695  186.42734  5.79%   157   66s

Cutting planes:
  Gomory: 4
  Implied bound: 50
  MIR: 356
  Relax-and-lift: 34

Explored 7420 nodes (931431 simplex iterations) in 67.71 seconds (92.11 work units)
Thread count was 36 (of 36 available processors)

Solution count 10: 197.887 198.355 198.424 ... 313.565

Optimal solution found (tolerance 1.00e-02)
Best objective 1.978869548224e+02, best bound 1.978869548224e+02, gap 0.0000%

Gurobi 11.0.0 (linux64) logging started Fri Apr 12 13:57:55 2024

Set parameter LogFile to value "/lustre1/scratch/348/vsc34888/JointResearch/05.Models/06.Benchmarking/K.Investments_per_hour/RTS24_ByStages_nc50/openStarNet_RTS24_ByStages_nc50.log"
Set parameter Method to value 2
Set parameter MIPFocus to value 1
Set parameter Presolve to value 2
Set parameter RINS to value 100
Set parameter MIPGap to value 0.01
Set parameter Threads to value 36
Set parameter TimeLimit to value 259200
Set parameter IterationLimit to value 760000000
Gurobi Optimizer version 11.0.0 build v11.0.0rc2 (linux64 - "Rocky Linux 8.8 (Green Obsidian)")

CPU model: Intel(R) Xeon(R) Gold 6240 CPU @ 2.60GHz, instruction set [SSE2|AVX|AVX2|AVX512]
Thread count: 36 physical cores, 36 logical processors, using up to 36 threads

Optimize a model with 19453 rows, 11590 columns and 45789 nonzeros
Model fingerprint: 0xaf588b09
Coefficient statistics:
  Matrix range     [3e-02, 6e+02]
  Objective range  [1e+00, 1e+00]
  Bounds range     [4e-04, 3e+00]
  RHS range        [4e-04, 4e+01]
Presolve removed 16693 rows and 6813 columns
Presolve time: 0.02s
Presolved: 2760 rows, 4827 columns, 12287 nonzeros

Ordering time: 0.00s

Barrier statistics:
 AA' NZ     : 6.604e+03
 Factor NZ  : 2.393e+04 (roughly 2 MB of memory)
 Factor Ops : 3.430e+05 (less than 1 second per iteration)
 Threads    : 1

                  Objective                Residual
Iter       Primal          Dual         Primal    Dual     Compl     Time
   0   1.17526566e+06 -4.19587415e+07  2.77e+00 2.51e+03  2.20e+04     0s
   1   1.18501368e+05 -1.87885956e+07  2.65e-01 3.96e-11  3.41e+03     0s
   2   4.76887081e+04 -4.84405093e+06  7.26e-02 4.00e-11  7.39e+02     0s
   3   2.70790541e+04 -4.91816516e+05  1.84e-03 3.64e-11  6.73e+01     0s
   4   1.54369413e+04 -5.06071710e+04  1.03e-12 6.70e-11  8.45e+00     0s
   5   3.73434664e+03 -5.81574679e+03  2.61e-13 1.46e-11  1.22e+00     0s
   6   5.93494108e+02 -2.52112753e+03  1.25e-13 7.28e-12  3.99e-01     0s
   7   4.35969991e+02 -7.48364764e+02  7.74e-14 7.28e-12  1.52e-01     0s
   8   3.32466617e+02 -7.91400305e+01  3.05e-14 1.46e-11  5.27e-02     0s
   9   2.57228446e+02  1.09125426e+02  1.93e-14 3.64e-12  1.90e-02     0s
  10   2.30810742e+02  1.63043085e+02  4.80e-14 7.28e-12  8.67e-03     0s
  11   2.10110447e+02  1.84248216e+02  1.98e-13 7.28e-12  3.31e-03     0s
  12   2.01351675e+02  1.92047028e+02  1.89e-12 7.28e-12  1.19e-03     0s
  13   1.98975117e+02  1.97480513e+02  1.65e-12 7.28e-12  1.91e-04     0s
  14   1.97903629e+02  1.97855281e+02  4.94e-12 7.28e-12  6.19e-06     0s
  15   1.97887173e+02  1.97886540e+02  3.55e-12 1.46e-11  8.11e-08     0s
  16   1.97886955e+02  1.97886955e+02  6.77e-13 7.28e-12  1.77e-13     0s

Barrier solved model in 16 iterations and 0.06 seconds (0.05 work units)
Optimal objective 1.97886955e+02

Crossover log...

     586 DPushes remaining with DInf 0.0000000e+00                 0s
       0 DPushes remaining with DInf 0.0000000e+00                 0s

     125 PPushes remaining with PInf 0.0000000e+00                 0s
       0 PPushes remaining with PInf 0.0000000e+00                 0s

  Push phase complete: Pinf 0.0000000e+00, Dinf 1.2435222e-12      0s

Iteration    Objective       Primal Inf.    Dual Inf.      Time
     142    1.9788695e+02   0.000000e+00   0.000000e+00      0s

Use crossover to convert LP symmetric solution to basic solution...
Crossover log...

      68 PPushes remaining with PInf 0.0000000e+00                 0s
       0 PPushes remaining with PInf 0.0000000e+00                 0s

  Push phase complete: Pinf 0.0000000e+00, Dinf 1.1789427e-12      0s

Iteration    Objective       Primal Inf.    Dual Inf.      Time
     213    1.9788695e+02   0.000000e+00   0.000000e+00      0s

Solved in 213 iterations and 0.08 seconds (0.06 work units)
Optimal objective  1.978869548e+02
